benchmark/results/graph__10-1000-0.10-03_13/graph__10-1000-0.10-03_13_QuintonOs_Benders_primal_sub.lp
\ This file has been generated by DOcplex
\ ENCODING=ISO-8859-1
\Problem name: Quinton Bounded Benders_primal_sub

Maximize
 obj: tau
Subject To
 c1: tau <= 0.001295336788
 c2: y_a0_proc_1 + y_a0_proc_2 - tau = 0
 c3: y_a0_proc_1 <= 0
 c4: y_a0_proc_2 <= 1
 c5: tau <= 0.000982318271
 c6: y_a1_proc_2 - tau = 0
 c7: y_a1_proc_2 <= 1
 c8: tau <= 0.001360544218
 c9: y_a2_proc_0 + y_a2_proc_1 + y_a2_proc_2 - tau = 0
 c10: y_a2_proc_0 <= 1
 c11: y_a2_proc_1 <= 0
 c12: y_a2_proc_2 <= 0
 c13: tau <= 0.001182033097
 c14: y_a3_proc_1 + y_a3_proc_2 - tau = 0
 c15: y_a3_proc_1 <= 1
 c16: y_a3_proc_2 <= 0
 c17: tau <= 0.000931098696
 c18: y_a4_proc_1 + y_a4_proc_2 - tau = 0
 c19: y_a4_proc_1 <= 1
 c20: y_a4_proc_2 <= 0
 c21: tau <= 0.000811688312
 c22: y_a5_proc_0 + y_a5_proc_1 + y_a5_proc_2 - tau = 0
 c23: y_a5_proc_0 <= 0
 c24: y_a5_proc_1 <= 0
 c25: y_a5_proc_2 <= 1
 c26: tau <= 0.001059322034
 c27: y_a6_proc_0 + y_a6_proc_1 + y_a6_proc_2 - tau = 0
 c28: y_a6_proc_0 <= 1
 c29: y_a6_proc_1 <= 0
 c30: y_a6_proc_2 <= 0
 c31: tau <= 0.002169197397
 c32: y_a7_proc_0 + y_a7_proc_1 + y_a7_proc_2 - tau = 0
 c33: y_a7_proc_0 <= 0
 c34: y_a7_proc_1 <= 0
 c35: y_a7_proc_2 <= 1
 c36: tau <= 0.001162790698
 c37: y_a8_proc_0 + y_a8_proc_1 - tau = 0
 c38: y_a8_proc_0 <= 0
 c39: y_a8_proc_1 <= 1
 c40: tau <= 0.000824402308
 c41: y_a9_proc_0 + y_a9_proc_1 + y_a9_proc_2 - tau = 0
 c42: y_a9_proc_0 <= 1
 c43: y_a9_proc_1 <= 0
 c44: y_a9_proc_2 <= 0
 c45: u_a1 - u_a0 - 1052 y_a0_proc_1 - 772 y_a0_proc_2 >= 0
 c46: u_a2 - u_a1 - 1018 y_a1_proc_2 >= 0
 c47: u_a0 - u_a3 - 846 y_a3_proc_1 - 1095 y_a3_proc_2 >= 0
 c48: u_a4 - u_a2 - 735 y_a2_proc_0 - 843 y_a2_proc_1 - 751 y_a2_proc_2 >= -1
 c49: u_a5 - u_a1 - 1018 y_a1_proc_2 >= 0
 c50: u_a5 - u_a6 - 944 y_a6_proc_0 - 981 y_a6_proc_1 - 904 y_a6_proc_2 >= 0
 c51: u_a1 - u_a7 - 1294 y_a7_proc_0 - 824 y_a7_proc_1 - 461 y_a7_proc_2 >= 0
 c52: u_a8 - u_a3 - 846 y_a3_proc_1 - 1095 y_a3_proc_2 >= 0
 c53: u_a6 - u_a9 - 1213 y_a9_proc_0 - 1007 y_a9_proc_1 - 1013 y_a9_proc_2 >= 0
 c54: u_a9 - u_a8 - 783 y_a8_proc_0 - 860 y_a8_proc_1 >= -1
 c55: u_a7 - u_a0 - 1052 y_a0_proc_1 - 772 y_a0_proc_2 >= 0
 c56: u_a3 - u_a5 - 594 y_a5_proc_0 - 1075 y_a5_proc_1 - 1232 y_a5_proc_2 >= -1
 c57: u_a9 - u_a2 - 735 y_a2_proc_0 - 843 y_a2_proc_1 - 751 y_a2_proc_2 >= -1
 c58: u_a6 - u_a5 - 594 y_a5_proc_0 - 1075 y_a5_proc_1 - 1232 y_a5_proc_2 >= -1
 c59: u_a8 - u_a6 - 944 y_a6_proc_0 - 981 y_a6_proc_1 - 904 y_a6_proc_2 >= 0
 c60: u_a3 - u_a4 - 1074 y_a4_proc_1 - 1276 y_a4_proc_2 >= 0
 c61: u_a3 - u_a8 - 783 y_a8_proc_0 - 860 y_a8_proc_1 >= -1
 c62: u_a1 - u_a0 - 772 y_a0_proc_2 >= 0
 c63: u_a0 - u_a1 - 1018 y_a1_proc_2 >= -1
 c64: u_a2 - u_a0 - 772 y_a0_proc_2 >= -1307
 c65: u_a2 - u_a0 - 1052 y_a0_proc_1 >= -2601
 c66: u_a0 - u_a2 - 751 y_a2_proc_2 >= -1282
 c67: u_a0 - u_a2 - 843 y_a2_proc_1 >= -2576
 c68: u_a3 - u_a0 - 772 y_a0_proc_2 >= -1307
 c69: u_a3 - u_a0 - 1052 y_a0_proc_1 >= -1307
 c70: u_a0 - u_a3 - 1095 y_a3_proc_2 >= -1282
 c71: u_a0 - u_a3 - 846 y_a3_proc_1 >= -1282
 c72: u_a4 - u_a0 - 772 y_a0_proc_2 >= -1307
 c73: u_a4 - u_a0 - 1052 y_a0_proc_1 >= -1307
 c74: u_a0 - u_a4 - 1276 y_a4_proc_2 >= -1282
 c75: u_a0 - u_a4 - 1074 y_a4_proc_1 >= -1282
 c76: u_a5 - u_a0 - 772 y_a0_proc_2 >= 0
 c77: u_a5 - u_a0 - 1052 y_a0_proc_1 >= -2588
 c78: u_a0 - u_a5 - 1232 y_a5_proc_2 >= -1
 c79: u_a0 - u_a5 - 1075 y_a5_proc_1 >= -2589
 c80: u_a6 - u_a0 - 772 y_a0_proc_2 >= -1307
 c81: u_a6 - u_a0 - 1052 y_a0_proc_1 >= -2601
 c82: u_a0 - u_a6 - 904 y_a6_proc_2 >= -1282
 c83: u_a0 - u_a6 - 981 y_a6_proc_1 >= -2576
 c84: u_a7 - u_a0 - 772 y_a0_proc_2 >= 0
 c85: u_a7 - u_a0 - 1052 y_a0_proc_1 >= -2588
 c86: u_a0 - u_a7 - 461 y_a7_proc_2 >= -1
 c87: u_a0 - u_a7 - 824 y_a7_proc_1 >= -2589
 c88: u_a8 - u_a0 - 1052 y_a0_proc_1 >= -1307
 c89: u_a0 - u_a8 - 860 y_a8_proc_1 >= -1282
 c90: u_a9 - u_a0 - 772 y_a0_proc_2 >= -1307
 c91: u_a9 - u_a0 - 1052 y_a0_proc_1 >= -2601
 c92: u_a0 - u_a9 - 1013 y_a9_proc_2 >= -1282
 c93: u_a0 - u_a9 - 1007 y_a9_proc_1 >= -2576
 c94: u_a2 - u_a1 - 1018 y_a1_proc_2 >= -1307
 c95: u_a1 - u_a2 - 751 y_a2_proc_2 >= -1282
 c96: u_a3 - u_a1 - 1018 y_a1_proc_2 >= -1307
 c97: u_a1 - u_a3 - 1095 y_a3_proc_2 >= -1282
 c98: u_a4 - u_a1 - 1018 y_a1_proc_2 >= -1307
 c99: u_a1 - u_a4 - 1276 y_a4_proc_2 >= -1282
 c100: u_a5 - u_a1 - 1018 y_a1_proc_2 >= 0
 c101: u_a1 - u_a5 - 1232 y_a5_proc_2 >= -1
 c102: u_a6 - u_a1 - 1018 y_a1_proc_2 >= -1307
 c103: u_a1 - u_a6 - 904 y_a6_proc_2 >= -1282
 c104: u_a7 - u_a1 - 1018 y_a1_proc_2 >= -1
 c105: u_a1 - u_a7 - 461 y_a7_proc_2 >= 0
 c106: u_a9 - u_a1 - 1018 y_a1_proc_2 >= -1307
 c107: u_a1 - u_a9 - 1013 y_a9_proc_2 >= -1282
 c108: u_a3 - u_a2 - 751 y_a2_proc_2 >= -2601
 c109: u_a3 - u_a2 - 843 y_a2_proc_1 >= -1307
 c110: u_a2 - u_a3 - 1095 y_a3_proc_2 >= -2576
 c111: u_a2 - u_a3 - 846 y_a3_proc_1 >= -1282
 c112: u_a4 - u_a2 - 751 y_a2_proc_2 >= -2601
 c113: u_a4 - u_a2 - 843 y_a2_proc_1 >= -1307
 c114: u_a2 - u_a4 - 1276 y_a4_proc_2 >= -2576
 c115: u_a2 - u_a4 - 1074 y_a4_proc_1 >= -1282
 c116: u_a5 - u_a2 - 751 y_a2_proc_2 >= -1282
 c117: u_a5 - u_a2 - 843 y_a2_proc_1 >= -2576
 c118: u_a5 - u_a2 - 735 y_a2_proc_0 >= -1282
 c119: u_a2 - u_a5 - 1232 y_a5_proc_2 >= -1307
 c120: u_a2 - u_a5 - 1075 y_a5_proc_1 >= -2601
 c121: u_a2 - u_a5 - 594 y_a5_proc_0 >= -1307
 c122: u_a6 - u_a2 - 751 y_a2_proc_2 >= -2589
 c123: u_a6 - u_a2 - 843 y_a2_proc_1 >= -2589
 c124: u_a6 - u_a2 - 735 y_a2_proc_0 >= -1
 c125: u_a2 - u_a6 - 904 y_a6_proc_2 >= -2588
 c126: u_a2 - u_a6 - 981 y_a6_proc_1 >= -2588
 c127: u_a2 - u_a6 - 944 y_a6_proc_0 >= 0
 c128: u_a7 - u_a2 - 751 y_a2_proc_2 >= -1307
 c129: u_a7 - u_a2 - 843 y_a2_proc_1 >= -2601
 c130: u_a7 - u_a2 - 735 y_a2_proc_0 >= -1307
 c131: u_a2 - u_a7 - 461 y_a7_proc_2 >= -1282
 c132: u_a2 - u_a7 - 824 y_a7_proc_1 >= -2576
 c133: u_a2 - u_a7 - 1294 y_a7_proc_0 >= -1282
 c134: u_a8 - u_a2 - 843 y_a2_proc_1 >= -1307
 c135: u_a8 - u_a2 - 735 y_a2_proc_0 >= -1307
 c136: u_a2 - u_a8 - 860 y_a8_proc_1 >= -1282
 c137: u_a2 - u_a8 - 783 y_a8_proc_0 >= -1282
 c138: u_a9 - u_a2 - 751 y_a2_proc_2 >= -2589
 c139: u_a9 - u_a2 - 843 y_a2_proc_1 >= -2589
 c140: u_a9 - u_a2 - 735 y_a2_proc_0 >= -1
 c141: u_a2 - u_a9 - 1013 y_a9_proc_2 >= -2588
 c142: u_a2 - u_a9 - 1007 y_a9_proc_1 >= -2588
 c143: u_a2 - u_a9 - 1213 y_a9_proc_0 >= 0
 c144: u_a4 - u_a3 - 1095 y_a3_proc_2 >= -2589
 c145: u_a4 - u_a3 - 846 y_a3_proc_1 >= -1
 c146: u_a3 - u_a4 - 1276 y_a4_proc_2 >= -2588
 c147: u_a3 - u_a4 - 1074 y_a4_proc_1 >= 0
 c148: u_a5 - u_a3 - 1095 y_a3_proc_2 >= -1307
 c149: u_a5 - u_a3 - 846 y_a3_proc_1 >= -1307
 c150: u_a3 - u_a5 - 1232 y_a5_proc_2 >= -1282
 c151: u_a3 - u_a5 - 1075 y_a5_proc_1 >= -1282
 c152: u_a6 - u_a3 - 1095 y_a3_proc_2 >= -2601
 c153: u_a6 - u_a3 - 846 y_a3_proc_1 >= -1307
 c154: u_a3 - u_a6 - 904 y_a6_proc_2 >= -2576
 c155: u_a3 - u_a6 - 981 y_a6_proc_1 >= -1282
 c156: u_a7 - u_a3 - 1095 y_a3_proc_2 >= -1307
 c157: u_a7 - u_a3 - 846 y_a3_proc_1 >= -1307
 c158: u_a3 - u_a7 - 461 y_a7_proc_2 >= -1282
 c159: u_a3 - u_a7 - 824 y_a7_proc_1 >= -1282
 c160: u_a8 - u_a3 - 846 y_a3_proc_1 >= 0
 c161: u_a3 - u_a8 - 860 y_a8_proc_1 >= -1
 c162: u_a9 - u_a3 - 1095 y_a3_proc_2 >= -2601
 c163: u_a9 - u_a3 - 846 y_a3_proc_1 >= -1307
 c164: u_a3 - u_a9 - 1013 y_a9_proc_2 >= -2576
 c165: u_a3 - u_a9 - 1007 y_a9_proc_1 >= -1282
 c166: u_a5 - u_a4 - 1276 y_a4_proc_2 >= -1282
 c167: u_a5 - u_a4 - 1074 y_a4_proc_1 >= -1282
 c168: u_a4 - u_a5 - 1232 y_a5_proc_2 >= -1307
 c169: u_a4 - u_a5 - 1075 y_a5_proc_1 >= -1307
 c170: u_a6 - u_a4 - 1276 y_a4_proc_2 >= -2601
 c171: u_a6 - u_a4 - 1074 y_a4_proc_1 >= -1307
 c172: u_a4 - u_a6 - 904 y_a6_proc_2 >= -2576
 c173: u_a4 - u_a6 - 981 y_a6_proc_1 >= -1282
 c174: u_a7 - u_a4 - 1276 y_a4_proc_2 >= -1307
 c175: u_a7 - u_a4 - 1074 y_a4_proc_1 >= -1307
 c176: u_a4 - u_a7 - 461 y_a7_proc_2 >= -1282
 c177: u_a4 - u_a7 - 824 y_a7_proc_1 >= -1282
 c178: u_a8 - u_a4 - 1074 y_a4_proc_1 >= 0
 c179: u_a4 - u_a8 - 860 y_a8_proc_1 >= -1
 c180: u_a9 - u_a4 - 1276 y_a4_proc_2 >= -2576
 c181: u_a9 - u_a4 - 1074 y_a4_proc_1 >= -1282
 c182: u_a4 - u_a9 - 1013 y_a9_proc_2 >= -2601
 c183: u_a4 - u_a9 - 1007 y_a9_proc_1 >= -1307
 c184: u_a6 - u_a5 - 1232 y_a5_proc_2 >= -1307
 c185: u_a6 - u_a5 - 1075 y_a5_proc_1 >= -2601
 c186: u_a6 - u_a5 - 594 y_a5_proc_0 >= -1307
 c187: u_a5 - u_a6 - 904 y_a6_proc_2 >= -1282
 c188: u_a5 - u_a6 - 981 y_a6_proc_1 >= -2576
 c189: u_a5 - u_a6 - 944 y_a6_proc_0 >= -1282
 c190: u_a7 - u_a5 - 1232 y_a5_proc_2 >= -1
 c191: u_a7 - u_a5 - 1075 y_a5_proc_1 >= -2589
 c192: u_a7 - u_a5 - 594 y_a5_proc_0 >= -2589
 c193: u_a5 - u_a7 - 461 y_a7_proc_2 >= 0
 c194: u_a5 - u_a7 - 824 y_a7_proc_1 >= -2588
 c195: u_a5 - u_a7 - 1294 y_a7_proc_0 >= -2588
 c196: u_a8 - u_a5 - 1075 y_a5_proc_1 >= -1282
 c197: u_a8 - u_a5 - 594 y_a5_proc_0 >= -2576
 c198: u_a5 - u_a8 - 860 y_a8_proc_1 >= -1307
 c199: u_a5 - u_a8 - 783 y_a8_proc_0 >= -2601
 c200: u_a9 - u_a5 - 1232 y_a5_proc_2 >= -1307
 c201: u_a9 - u_a5 - 1075 y_a5_proc_1 >= -2601
 c202: u_a9 - u_a5 - 594 y_a5_proc_0 >= -1307
 c203: u_a5 - u_a9 - 1013 y_a9_proc_2 >= -1282
 c204: u_a5 - u_a9 - 1007 y_a9_proc_1 >= -2576
 c205: u_a5 - u_a9 - 1213 y_a9_proc_0 >= -1282
 c206: u_a7 - u_a6 - 904 y_a6_proc_2 >= -1307
 c207: u_a7 - u_a6 - 981 y_a6_proc_1 >= -2601
 c208: u_a7 - u_a6 - 944 y_a6_proc_0 >= -1307
 c209: u_a6 - u_a7 - 461 y_a7_proc_2 >= -1282
 c210: u_a6 - u_a7 - 824 y_a7_proc_1 >= -2576
 c211: u_a6 - u_a7 - 1294 y_a7_proc_0 >= -1282
 c212: u_a8 - u_a6 - 981 y_a6_proc_1 >= -1307
 c213: u_a8 - u_a6 - 944 y_a6_proc_0 >= -1307
 c214: u_a6 - u_a8 - 860 y_a8_proc_1 >= -1282
 c215: u_a6 - u_a8 - 783 y_a8_proc_0 >= -1282
 c216: u_a9 - u_a6 - 904 y_a6_proc_2 >= -2589
 c217: u_a9 - u_a6 - 981 y_a6_proc_1 >= -2589
 c218: u_a9 - u_a6 - 944 y_a6_proc_0 >= -1
 c219: u_a6 - u_a9 - 1013 y_a9_proc_2 >= -2588
 c220: u_a6 - u_a9 - 1007 y_a9_proc_1 >= -2588
 c221: u_a6 - u_a9 - 1213 y_a9_proc_0 >= 0
 c222: u_a8 - u_a7 - 824 y_a7_proc_1 >= -1307
 c223: u_a8 - u_a7 - 1294 y_a7_proc_0 >= -2601
 c224: u_a7 - u_a8 - 860 y_a8_proc_1 >= -1282
 c225: u_a7 - u_a8 - 783 y_a8_proc_0 >= -2576
 c226: u_a9 - u_a7 - 461 y_a7_proc_2 >= -1307
 c227: u_a9 - u_a7 - 824 y_a7_proc_1 >= -2601
 c228: u_a9 - u_a7 - 1294 y_a7_proc_0 >= -1307
 c229: u_a7 - u_a9 - 1013 y_a9_proc_2 >= -1282
 c230: u_a7 - u_a9 - 1007 y_a9_proc_1 >= -2576
 c231: u_a7 - u_a9 - 1213 y_a9_proc_0 >= -1282
 c232: u_a9 - u_a8 - 860 y_a8_proc_1 >= -1307
 c233: u_a9 - u_a8 - 783 y_a8_proc_0 >= -1307
 c234: u_a8 - u_a9 - 1007 y_a9_proc_1 >= -1282
 c235: u_a8 - u_a9 - 1213 y_a9_proc_0 >= -1282

Bounds
End
