benchmark/results/graph__10-1000-0.10-03_13/graph__10-1000-0.10-03_13_QuintonOs_Benders_primal_sub.txt
solution for: Quinton Bounded Benders_primal_sub
objective: 0.000203832
status: OPTIMAL_SOLUTION(2)
u_a0=0.391
u_a1=0.643
u_a2=0.850
u_a3=0.219
u_a5=0.968
u_a6=0.632
u_a7=0.549
u_a8=0.825
tau=0.000
y_a0_proc_2=0.000
y_a1_proc_2=0.000
y_a2_proc_0=0.000
y_a3_proc_1=0.000
y_a4_proc_1=0.000
y_a5_proc_2=0.000
y_a6_proc_0=0.000
y_a7_proc_2=0.000
y_a8_proc_1=0.000
y_a9_proc_0=0.000
